$  # - Wall
$  @ - Target Position
$  $ - Porter
$  & - Crate
$  * - Empty Cell
$
$  ###
$  $&@
$  ### 
$ by Geetha Ramachandran
$ geetha.ramachandran@gmail.com

language ESSENCE' 1.b.a

parameter n be 9
parameter w be 3
parameter noWalls be 6
parameter noInvalidMoves be 3
parameter  noCrates be 1
parameter noGoals be 1

parameter pInit be 3

parameter stps be 2

parameter walls is [0,1,2,6,7,8]

parameter invalidMoves is [2,0,-2]

parameter crates is [4]

parameter goals is [5]

